NAME : 10_3_3_2_(14).dat
COMMENT : Henke, Speranza, Wäscher, 2015
TYPE : MCVRP
DIMENSION : 11
EDGE_WEIGHT_TYPE : DISTANCE_MATRIX
CAPACITY : 1000
VEHICLES : 3
PRODUCT TYPES : 3
COMPARTMENTS : 3
NODE_COORD_SECTION
1 50 50
2 3.78 4.46
3 83.47 35.61
4 95.53 2.26
5 29.02 40.05
6 55.74 2.63
7 18.46 84.07
8 74.81 1.63
9 58.03 40.31
10 95.15 76.26
11 1.48 33.74
DEMAND_SECTION
1 0 0 0
2 202 4 0
3 36 0 85
4 27 0 37
5 0 109 158
6 190 76 0
7 27 0 50
8 199 28 0
9 95 107 0
10 25 116 0
11 20 54 0
DEPOT_SECTION
1
EOF